experiments/sat_smt/run/sat-l/results/chris.res
solved=true
solvingTime=399.694488525390625
nActions=31