experiments/sat_smt/run/sat-l/results/chris.out
Timesteps: 1
s UNSATISFIABLE
real 0.06
user 0.00
sys 0.00
Timesteps: 2
s UNSATISFIABLE
real 0.09
user 0.01
sys 0.00
Timesteps: 3
s UNSATISFIABLE
real 0.05
user 0.02
sys 0.00
Timesteps: 4
s UNSATISFIABLE
real 0.08
user 0.03
sys 0.00
Timesteps: 5
s UNSATISFIABLE
real 0.09
user 0.05
sys 0.00
Timesteps: 6
s UNSATISFIABLE
real 0.09
user 0.04
sys 0.00
Timesteps: 7
s UNSATISFIABLE
real 0.17
user 0.12
sys 0.00
Timesteps: 8
s UNSATISFIABLE
real 0.18
user 0.13
sys 0.00
Timesteps: 9
s UNSATISFIABLE
real 0.65
user 0.59
sys 0.00
Timesteps: 10
s UNSATISFIABLE
real 0.65
user 0.55
sys 0.00
Timesteps: 11
s UNSATISFIABLE
real 0.40
user 0.31
sys 0.01
Timesteps: 12
s UNSATISFIABLE
real 0.87
user 0.77
sys 0.01
Timesteps: 13
s UNSATISFIABLE
real 0.82
user 0.73
sys 0.01
Timesteps: 14
s UNSATISFIABLE
real 1.16
user 1.06
sys 0.01
Timesteps: 15
s UNSATISFIABLE
real 2.00
user 1.87
sys 0.01
Timesteps: 16
s UNSATISFIABLE
real 3.79
user 3.65
sys 0.02
Timesteps: 17
s UNSATISFIABLE
real 5.32
user 5.16
sys 0.02
Timesteps: 18
s UNSATISFIABLE
real 5.25
user 5.08
sys 0.02
Timesteps: 19
s UNSATISFIABLE
real 6.68
user 6.50
sys 0.02
Timesteps: 20
s UNSATISFIABLE
real 7.69
user 7.46
sys 0.03
Timesteps: 21
s UNSATISFIABLE
real 8.95
user 8.74
sys 0.03
Timesteps: 22
s UNSATISFIABLE
real 10.16
user 9.93
sys 0.04
Timesteps: 23
s UNSATISFIABLE
real 12.02
user 11.77
sys 0.05
Timesteps: 24
s UNSATISFIABLE
real 16.00
user 15.72
sys 0.05
Timesteps: 25
s UNSATISFIABLE
real 21.31
user 20.90
sys 0.07
Timesteps: 26
s UNSATISFIABLE
real 23.05
user 22.65
sys 0.07
Timesteps: 27
s UNSATISFIABLE
real 30.91
user 30.55
sys 0.06
Timesteps: 28
s UNSATISFIABLE
real 45.74
user 45.28
sys 0.10
Timesteps: 29
s UNSATISFIABLE
real 49.47
user 48.97
sys 0.12
Timesteps: 30
s UNSATISFIABLE
real 70.52
user 69.89
sys 0.15
Timesteps: 31
s SATISFIABLE
real 76.75
user 76.06
sys 0.18
